(set-logic QF_LRA)
(declare-fun X0 () Real )
(declare-fun Y0 () Real )
(declare-fun X1 () Real )
(declare-fun Y1 () Real )
(declare-fun X2 () Real )
(declare-fun Y2 () Real )
(declare-fun X3 () Real )
(declare-fun Y3 () Real )
(declare-fun X4 () Real )
(declare-fun Y4 () Real )
(declare-fun X5 () Real )
(declare-fun Y5 () Real )
(declare-fun Z () Real )
(assert ( and  
( or ( <= ( + X0 54 ) X1 )  ( <= ( + X1 22 ) X0 )  ( <= ( + Y0 98 ) Y1 )  ( <= ( + Y1 53 ) Y0 )  )
( or ( <= ( + X0 54 ) X2 )  ( <= ( + X2 90 ) X0 )  ( <= ( + Y0 98 ) Y2 )  ( <= ( + Y2 14 ) Y0 )  )
( or ( <= ( + X0 54 ) X3 )  ( <= ( + X3 22 ) X0 )  ( <= ( + Y0 98 ) Y3 )  ( <= ( + Y3 99 ) Y0 )  )
( or ( <= ( + X0 54 ) X4 )  ( <= ( + X4 9 ) X0 )  ( <= ( + Y0 98 ) Y4 )  ( <= ( + Y4 80 ) Y0 )  )
( or ( <= ( + X0 54 ) X5 )  ( <= ( + X5 56 ) X0 )  ( <= ( + Y0 98 ) Y5 )  ( <= ( + Y5 92 ) Y0 )  )
( or ( <= ( + X1 22 ) X2 )  ( <= ( + X2 90 ) X1 )  ( <= ( + Y1 53 ) Y2 )  ( <= ( + Y2 14 ) Y1 )  )
( or ( <= ( + X1 22 ) X3 )  ( <= ( + X3 22 ) X1 )  ( <= ( + Y1 53 ) Y3 )  ( <= ( + Y3 99 ) Y1 )  )
( or ( <= ( + X1 22 ) X4 )  ( <= ( + X4 9 ) X1 )  ( <= ( + Y1 53 ) Y4 )  ( <= ( + Y4 80 ) Y1 )  )
( or ( <= ( + X1 22 ) X5 )  ( <= ( + X5 56 ) X1 )  ( <= ( + Y1 53 ) Y5 )  ( <= ( + Y5 92 ) Y1 )  )
( or ( <= ( + X2 90 ) X3 )  ( <= ( + X3 22 ) X2 )  ( <= ( + Y2 14 ) Y3 )  ( <= ( + Y3 99 ) Y2 )  )
( or ( <= ( + X2 90 ) X4 )  ( <= ( + X4 9 ) X2 )  ( <= ( + Y2 14 ) Y4 )  ( <= ( + Y4 80 ) Y2 )  )
( or ( <= ( + X2 90 ) X5 )  ( <= ( + X5 56 ) X2 )  ( <= ( + Y2 14 ) Y5 )  ( <= ( + Y5 92 ) Y2 )  )
( or ( <= ( + X3 22 ) X4 )  ( <= ( + X4 9 ) X3 )  ( <= ( + Y3 99 ) Y4 )  ( <= ( + Y4 80 ) Y3 )  )
( or ( <= ( + X3 22 ) X5 )  ( <= ( + X5 56 ) X3 )  ( <= ( + Y3 99 ) Y5 )  ( <= ( + Y5 92 ) Y3 )  )
( or ( <= ( + X4 9 ) X5 )  ( <= ( + X5 56 ) X4 )  ( <= ( + Y4 80 ) Y5 )  ( <= ( + Y5 92 ) Y4 )  )
( >= X0 0)
( <= ( + X0 54) Z)
( >= Y0 0)
( <= ( + Y0 98 ) 122)
( >= X1 0)
( <= ( + X1 22) Z)
( >= Y1 0)
( <= ( + Y1 53 ) 122)
( >= X2 0)
( <= ( + X2 90) Z)
( >= Y2 0)
( <= ( + Y2 14 ) 122)
( >= X3 0)
( <= ( + X3 22) Z)
( >= Y3 0)
( <= ( + Y3 99 ) 122)
( >= X4 0)
( <= ( + X4 9) Z)
( >= Y4 0)
( <= ( + Y4 80 ) 122)
( >= X5 0)
( <= ( + X5 56) Z)
( >= Y5 0)
( <= ( + Y5 92 ) 122)
) )
(minimize Z)
(check-sat)
